
******************************************************************************
This program contains Ipopt, a library for large-scale nonlinear optimization.
 Ipopt is released as open source code under the Eclipse Public License (EPL).
         For more information visit http://projects.coin-or.org/Ipopt

This version of Ipopt was compiled from source code available at
    https://github.com/IDAES/Ipopt as part of the Institute for the Design of
    Advanced Energy Systems Process Systems Engineering Framework (IDAES PSE
    Framework) Copyright (c) 2018-2019. See https://github.com/IDAES/idaes-pse.

This version of Ipopt was compiled using HSL, a collection of Fortran codes
    for large-scale scientific computation.  All technical papers, sales and
    publicity material resulting from use of the HSL codes within IPOPT must
    contain the following acknowledgement:
        HSL, a collection of Fortran codes for large-scale scientific
        computation. See http://www.hsl.rl.ac.uk.
******************************************************************************

This is Ipopt version 3.13.2, running with linear solver ma27.

Number of nonzeros in equality constraint Jacobian...:      808
Number of nonzeros in inequality constraint Jacobian.:        0
Number of nonzeros in Lagrangian Hessian.............:      702

Total number of variables............................:      351
                     variables with only lower bounds:      108
                variables with lower and upper bounds:      189
                     variables with only upper bounds:        0
Total number of equality constraints.................:      350
Total number of inequality constraints...............:        0
        inequality constraints with only lower bounds:        0
   inequality constraints with lower and upper bounds:        0
        inequality constraints with only upper bounds:        0

iter    objective    inf_pr   inf_du lg(mu)  ||d||  lg(rg) alpha_du alpha_pr  ls
   0  0.0000000e+00 4.82e-01 1.44e-15  -1.0 0.00e+00    -  0.00e+00 0.00e+00   0
   1  4.8411314e-01 4.12e-01 2.28e+04  -1.0 2.87e+05    -  4.44e-01 1.50e-01h  1
   2  5.2643434e-01 4.09e-01 2.29e+04  -1.0 2.99e+05    -  7.05e-01 7.36e-03h  1
   3  3.2353592e+01 6.81e-02 2.81e+04  -1.0 3.29e+05    -  7.04e-01 9.90e-01h  1
   4  4.4737029e+01 2.92e-03 1.68e+03  -1.0 6.80e+04    -  9.29e-01 9.90e-01h  1
   5  4.5249695e+01 3.36e-05 1.05e+02  -1.0 2.70e+03    -  9.89e-01 9.90e-01h  1
   6  4.5249930e+01 3.33e-05 1.16e+07  -1.0 2.30e+02    -  9.90e-01 7.73e-03f  8
   7  4.5256875e+01 3.12e-05 2.20e+07  -1.0 9.85e+02    -  9.90e-01 6.19e-02f  5
   8  4.5368793e+01 1.08e-04 3.47e+05  -1.0 1.01e+03    -  1.00e+00 9.90e-01H  1
   9  4.5365537e+01 1.33e-06 1.27e+07  -1.0 3.08e+01    -  1.00e+00 9.90e-01h  1
iter    objective    inf_pr   inf_du lg(mu)  ||d||  lg(rg) alpha_du alpha_pr  ls
  10  4.5365640e+01 1.42e-08 1.27e+09  -1.0 9.53e-01    -  1.00e+00 9.90e-01h  1
  11  4.5365641e+01 1.42e-10 1.27e+11  -1.0 9.58e-03    -  1.00e+00 9.90e-01h  1
In iteration 11, 27 Slacks too small, adjusting variable bounds
  12  4.5365641e+01 5.05e-12 1.27e+13  -1.0 9.58e-05    -  1.00e+00 9.90e-01h  1
  13  4.5365641e+01 5.91e-12 9.57e-02  -1.0 9.66e-07    -  1.00e+00 1.00e+00h  1
  14  4.5365635e+01 3.05e-12 1.30e+13  -9.0 1.13e+03    -  9.97e-01 5.44e-05f 15
  15  4.5365634e+01 3.00e-12 1.30e+13  -9.0 1.01e+03    -  9.98e-01 3.81e-06f 19
  16  4.5365632e+01 3.22e-12 1.30e+13  -9.0 1.01e+03    -  1.00e+00 1.53e-05f 17
  17  4.5365631e+01 3.51e-12 1.30e+13  -9.0 1.01e+03    -  1.00e+00 1.53e-05f 17
  18  4.5365630e+01 3.28e-12 1.30e+13  -9.0 1.01e+03    -  1.00e+00 7.63e-06f 18
  19  4.5256471e+01 9.74e-04 8.75e+05  -9.0 1.01e+03    -  1.00e+00 1.00e+00f  1
iter    objective    inf_pr   inf_du lg(mu)  ||d||  lg(rg) alpha_du alpha_pr  ls
  20  4.5254705e+01 1.72e-09 4.40e-04  -9.0 1.60e+01    -  1.00e+00 1.00e+00h  1
  21  4.5254705e+01 2.72e-12 2.34e-12  -9.0 1.74e-04    -  1.00e+00 1.00e+00h  1

Number of Iterations....: 21

                                   (scaled)                 (unscaled)
Objective...............:   4.5254704862309381e+01    4.5254704862309381e+01
Dual infeasibility......:   2.3372340841063365e-12    2.3372340841063365e-12
Constraint violation....:   2.7218227671710338e-12    2.7218227671710338e-12
Complementarity.........:   9.0909090909095708e-10    9.0909090909095708e-10
Overall NLP error.......:   1.3994318711288432e-11    9.0909090909095708e-10


Number of objective function evaluations             = 137
Number of objective gradient evaluations             = 22
Number of equality constraint evaluations            = 137
Number of inequality constraint evaluations          = 0
Number of equality constraint Jacobian evaluations   = 22
Number of inequality constraint Jacobian evaluations = 0
Number of Lagrangian Hessian evaluations             = 21
Total CPU secs in IPOPT (w/o function evaluations)   =      0.048
Total CPU secs in NLP function evaluations           =      0.948

EXIT: Optimal Solution Found.
